 Minimize
[ 1.0000000000000000 Z0 * Z16  ]
Subject to
c1: [ -6.0000000000000000 Z0 * Z7 -6.0000000000000000 Z0 * Z8 -6.0000000000000000 Z0 * Z9  + 1.0000000000000000 Z0 * Z16 -0.0025000000000000 Z7 * Z7 -0.0025000000000000 Z8 * Z8 -0.0025000000000000 Z9 * Z9  ] = 900.000000
c2: [ -100.0000000000000000 Z0 * Z1  + 1.0000000000000000 Z0 * Z4  ] >= 0.000000
c3: [ -100.0000000000000000 Z0 * Z2  + 1.0000000000000000 Z0 * Z5  ] >= 0.000000
c4: [ -100.0000000000000000 Z0 * Z3  + 1.0000000000000000 Z0 * Z6  ] >= 0.000000
c5: [ -500.0000000000000000 Z0 * Z1  + 1.0000000000000000 Z0 * Z4  ] <= 0.000000
c6: [ -500.0000000000000000 Z0 * Z2  + 1.0000000000000000 Z0 * Z5  ] <= 0.000000
c7: [ -500.0000000000000000 Z0 * Z3  + 1.0000000000000000 Z0 * Z6  ] <= 0.000000
c8: [ 1.0000000000000000 Z0 * Z10  + 1.0000000000000000 Z0 * Z13  ] = 3500.000000
c9: [ 1.0000000000000000 Z0 * Z11 -1.0000000000000000 Z0 * Z13  + 1.0000000000000000 Z0 * Z14  ] = 500.000000
c10: [ 1.0000000000000000 Z0 * Z12 -1.0000000000000000 Z0 * Z14  + 1.0000000000000000 Z0 * Z15  ] = 500.000000
c11: [ 1.0000000000000000 Z0 * Z4  + 1.0000000000000000 Z0 * Z7  ] >= 400.000000
c12: [ 1.0000000000000000 Z0 * Z5  + 1.0000000000000000 Z0 * Z8  ] >= 900.000000
c13: [ 1.0000000000000000 Z0 * Z6  + 1.0000000000000000 Z0 * Z9  ] >= 700.000000
c14: [ -50.0000000000000000 Z0 * Z1 -1.0000000000000000 Z0 * Z4  + 1.0000000000000000 Z0 * Z10 -0.0050000000000000 Z4 * Z4  ] = 0.000000
c15: [ -50.0000000000000000 Z0 * Z2 -1.0000000000000000 Z0 * Z5  + 1.0000000000000000 Z0 * Z11 -0.0050000000000000 Z5 * Z5  ] = 0.000000
c16: [ -50.0000000000000000 Z0 * Z3 -1.0000000000000000 Z0 * Z6  + 1.0000000000000000 Z0 * Z12 -0.0050000000000000 Z6 * Z6  ] = 0.000000
ac1: Z0 - 1 = 0
Bounds
1 <= Z0 <= 1
0.0000000000000000 <= Z1 <= 1.0000000000000000
0.0000000000000000 <= Z2 <= 1.0000000000000000
0.0000000000000000 <= Z3 <= 1.0000000000000000
-100000000.0000000000000000 <= Z4 <= 100000000.0000000000000000
-100000000.0000000000000000 <= Z5 <= 100000000.0000000000000000
-100000000.0000000000000000 <= Z6 <= 100000000.0000000000000000
50.0000000000000000 <= Z7 <= 700.0000000000000000
50.0000000000000000 <= Z8 <= 700.0000000000000000
50.0000000000000000 <= Z9 <= 700.0000000000000000
0.0000000000000000 <= Z10 <= 100000000.0000000000000000
0.0000000000000000 <= Z11 <= 100000000.0000000000000000
0.0000000000000000 <= Z12 <= 100000000.0000000000000000
0.0000000000000000 <= Z13 <= 4000.0000000000000000
0.0000000000000000 <= Z14 <= 4000.0000000000000000
2000.0000000000000000 <= Z15 <= 4000.0000000000000000
-100000000.0000000000000000 <= Z16 <= 100000000.0000000000000000
Binaries
Z1 Z2 Z3 
End